
  17    4
  10   10   10   10

   0   0   0   0   0   4 2 3 5 9 
   9  10  10  10  10   2 6 4 
   3  10  10  10  10   3 10 8 7 
   1  10  10  10  10   3 11 10 8 
   5  10  10  10  10   3 16 12 7 
   1  10  10  10  10   2 16 7 
   1  10  10  10  10   3 15 14 11 
  10  10  10  10  10   3 15 14 13 
   9  10  10  10  10   2 14 11 
   5  10  10  10  10   2 16 13 
   8  10  10  10  10   1 13 
  10  10  10  10  10   1 14 
   9  10  10  10  10   1 17
   3  10  10  10  10   1 17
  10  10  10  10  10   1 17
   3  10  10  10  10   1 17
   0   0   0   0   0   0 
